(set-info :source |printed by MathSAT|)

1 (14) @37:
(assert true)

14 (24) @45:
(assert true)

24 (29) @45:
(assert true)

29 (36) @45:
(assert true)

36 (43) @45:
(assert true)

43 (47) @45:
(assert true)

47 (54) @45:
(assert true)

54 (58,59) @45:
(assert true)

58 () @363:
(assert true)

59 () @45:
(assert true)

